benchmarks_CP/INST_49x49/50/inst49x49_50_13.dzn
S=7;
start=[|
4,	-1,	-1,	-1,	-1,	-1,	-1,	15,	-1,	-1,	-1,	30,	26,	-1,	38,	19,	-1,	24,	-1,	11,	33,	20,	-1,	-1,	-1,	-1,	47,	-1,	5,	48,	23,	2,	-1,	14,	-1,	44,	-1,	-1,	27,	-1,	-1,	-1,	-1,	21,	-1,	-1,	45,	-1,	-1|
35,	11,	26,	23,	40,	-1,	-1,	45,	-1,	6,	42,	-1,	7,	-1,	20,	-1,	-1,	37,	-1,	-1,	-1,	5,	19,	14,	9,	12,	-1,	46,	18,	-1,	-1,	27,	36,	-1,	1,	-1,	-1,	-1,	4,	-1,	-1,	30,	47,	3,	15,	28,	32,	24,	25|
6,	-1,	-1,	-1,	-1,	-1,	16,	-1,	25,	-1,	39,	44,	47,	-1,	-1,	26,	-1,	-1,	10,	-1,	27,	-1,	48,	-1,	-1,	-1,	45,	-1,	-1,	46,	49,	13,	15,	3,	20,	-1,	18,	32,	21,	-1,	34,	-1,	23,	12,	-1,	4,	-1,	-1,	-1|
46,	32,	38,	12,	-1,	34,	-1,	13,	19,	-1,	21,	-1,	14,	49,	-1,	18,	-1,	35,	25,	-1,	5,	-1,	-1,	-1,	33,	-1,	-1,	-1,	-1,	-1,	4,	-1,	41,	-1,	-1,	16,	7,	15,	-1,	-1,	-1,	-1,	30,	10,	17,	8,	37,	48,	-1|
5,	3,	9,	-1,	19,	-1,	48,	-1,	37,	-1,	-1,	-1,	-1,	-1,	-1,	32,	-1,	-1,	-1,	-1,	45,	-1,	4,	18,	-1,	-1,	36,	-1,	33,	-1,	12,	47,	25,	43,	21,	-1,	40,	-1,	-1,	-1,	-1,	11,	-1,	-1,	31,	-1,	27,	13,	42|
-1,	22,	15,	-1,	-1,	21,	-1,	-1,	-1,	38,	-1,	43,	20,	-1,	-1,	23,	4,	8,	48,	13,	-1,	30,	32,	-1,	3,	27,	34,	-1,	-1,	40,	-1,	19,	-1,	-1,	-1,	-1,	-1,	-1,	-1,	-1,	14,	-1,	-1,	-1,	16,	-1,	9,	36,	44|
-1,	-1,	14,	-1,	-1,	20,	-1,	4,	48,	27,	-1,	23,	-1,	9,	47,	-1,	3,	-1,	-1,	30,	16,	-1,	-1,	25,	38,	44,	-1,	-1,	-1,	39,	-1,	-1,	7,	-1,	22,	36,	42,	-1,	-1,	-1,	-1,	28,	5,	-1,	-1,	-1,	-1,	26,	29|
19,	20,	-1,	21,	47,	-1,	-1,	-1,	-1,	-1,	-1,	39,	-1,	26,	-1,	-1,	15,	-1,	13,	49,	-1,	28,	42,	5,	-1,	24,	35,	-1,	40,	-1,	14,	-1,	3,	37,	-1,	18,	-1,	-1,	-1,	41,	-1,	43,	46,	23,	44,	-1,	33,	-1,	-1|
49,	25,	-1,	-1,	-1,	14,	-1,	-1,	22,	37,	-1,	21,	8,	1,	3,	-1,	28,	-1,	6,	-1,	-1,	-1,	-1,	-1,	36,	17,	-1,	-1,	-1,	23,	33,	4,	-1,	13,	27,	-1,	31,	-1,	9,	34,	11,	26,	2,	-1,	47,	-1,	-1,	-1,	48|
-1,	1,	-1,	48,	-1,	4,	-1,	-1,	31,	-1,	-1,	33,	-1,	-1,	25,	-1,	37,	32,	16,	-1,	-1,	3,	29,	2,	14,	34,	20,	27,	15,	43,	-1,	-1,	8,	21,	-1,	46,	-1,	-1,	-1,	23,	-1,	24,	11,	-1,	12,	26,	6,	41,	7|
26,	-1,	13,	38,	-1,	9,	30,	-1,	-1,	14,	32,	46,	24,	4,	44,	22,	48,	11,	20,	5,	17,	-1,	-1,	-1,	-1,	33,	7,	45,	-1,	18,	-1,	6,	-1,	-1,	-1,	-1,	-1,	8,	1,	28,	49,	-1,	-1,	40,	-1,	-1,	3,	21,	-1|
39,	-1,	-1,	16,	35,	3,	27,	-1,	12,	-1,	23,	34,	-1,	-1,	8,	38,	-1,	-1,	-1,	45,	-1,	46,	22,	49,	11,	13,	48,	31,	25,	-1,	-1,	41,	30,	29,	-1,	-1,	-1,	44,	-1,	-1,	6,	42,	-1,	-1,	-1,	32,	-1,	19,	43|
42,	15,	31,	-1,	-1,	-1,	2,	-1,	-1,	13,	3,	48,	-1,	-1,	-1,	-1,	-1,	-1,	7,	9,	23,	-1,	30,	40,	-1,	-1,	-1,	26,	22,	-1,	36,	-1,	39,	11,	49,	4,	20,	47,	25,	-1,	12,	-1,	-1,	1,	-1,	24,	-1,	38,	16|
-1,	34,	45,	-1,	5,	11,	-1,	-1,	20,	43,	-1,	35,	-1,	-1,	21,	33,	29,	19,	41,	-1,	-1,	-1,	-1,	-1,	47,	1,	-1,	9,	48,	-1,	46,	-1,	24,	17,	7,	-1,	-1,	27,	16,	-1,	-1,	-1,	-1,	-1,	-1,	-1,	-1,	-1,	39|
3,	21,	-1,	35,	-1,	-1,	-1,	39,	28,	26,	27,	10,	-1,	36,	45,	20,	11,	-1,	-1,	-1,	-1,	-1,	13,	-1,	5,	-1,	-1,	32,	-1,	-1,	47,	-1,	-1,	-1,	-1,	-1,	24,	-1,	14,	-1,	42,	-1,	12,	-1,	30,	-1,	-1,	44,	-1|
-1,	-1,	11,	18,	44,	-1,	37,	-1,	1,	-1,	25,	19,	-1,	-1,	43,	-1,	10,	26,	-1,	-1,	-1,	-1,	35,	-1,	29,	-1,	27,	2,	41,	38,	45,	42,	13,	34,	-1,	7,	39,	23,	-1,	-1,	-1,	-1,	4,	-1,	-1,	9,	16,	-1,	-1|
-1,	-1,	-1,	-1,	-1,	-1,	-1,	-1,	45,	23,	40,	-1,	-1,	-1,	2,	7,	32,	-1,	34,	-1,	21,	19,	-1,	-1,	20,	-1,	49,	-1,	-1,	-1,	39,	9,	-1,	16,	44,	-1,	35,	-1,	-1,	30,	15,	-1,	-1,	-1,	-1,	-1,	-1,	-1,	-1|
14,	24,	47,	2,	45,	39,	20,	11,	5,	9,	-1,	29,	35,	-1,	13,	40,	31,	-1,	27,	41,	-1,	-1,	7,	-1,	-1,	3,	-1,	15,	-1,	-1,	-1,	-1,	-1,	30,	19,	12,	34,	-1,	32,	43,	-1,	-1,	-1,	26,	-1,	-1,	-1,	10,	8|
-1,	-1,	-1,	28,	-1,	38,	15,	43,	14,	44,	8,	18,	22,	-1,	19,	9,	-1,	30,	5,	12,	-1,	10,	40,	-1,	41,	-1,	-1,	-1,	32,	-1,	35,	33,	-1,	-1,	-1,	31,	1,	2,	-1,	16,	-1,	-1,	6,	-1,	-1,	7,	-1,	-1,	3|
48,	23,	30,	19,	41,	-1,	22,	49,	32,	-1,	-1,	-1,	12,	16,	-1,	29,	-1,	-1,	-1,	1,	-1,	39,	-1,	44,	-1,	-1,	-1,	-1,	-1,	-1,	26,	7,	-1,	18,	40,	20,	13,	-1,	-1,	27,	-1,	46,	-1,	-1,	33,	2,	-1,	43,	31|
-1,	43,	-1,	-1,	9,	-1,	-1,	46,	7,	-1,	4,	41,	-1,	-1,	-1,	-1,	44,	33,	42,	-1,	-1,	-1,	1,	-1,	-1,	6,	-1,	12,	-1,	11,	-1,	8,	20,	-1,	-1,	-1,	17,	28,	49,	48,	-1,	22,	-1,	24,	-1,	-1,	21,	15,	-1|
-1,	-1,	3,	33,	-1,	26,	45,	17,	36,	18,	-1,	-1,	-1,	31,	29,	-1,	43,	21,	-1,	-1,	-1,	34,	46,	37,	-1,	20,	-1,	10,	-1,	-1,	28,	-1,	16,	24,	13,	-1,	-1,	1,	44,	-1,	-1,	-1,	-1,	-1,	42,	-1,	-1,	2,	40|
22,	-1,	-1,	10,	-1,	23,	-1,	-1,	2,	21,	35,	-1,	-1,	-1,	28,	-1,	47,	40,	-1,	48,	13,	29,	-1,	12,	-1,	-1,	-1,	30,	-1,	-1,	-1,	3,	4,	-1,	34,	32,	-1,	49,	-1,	-1,	16,	31,	-1,	-1,	38,	-1,	-1,	-1,	-1|
2,	-1,	-1,	-1,	-1,	-1,	-1,	25,	-1,	7,	41,	20,	4,	33,	17,	-1,	-1,	14,	24,	-1,	-1,	45,	-1,	-1,	-1,	11,	44,	-1,	37,	32,	15,	21,	-1,	46,	-1,	9,	-1,	-1,	28,	13,	-1,	3,	-1,	-1,	29,	10,	30,	39,	26|
-1,	-1,	39,	-1,	-1,	28,	-1,	-1,	26,	-1,	-1,	-1,	16,	-1,	42,	36,	30,	-1,	15,	-1,	22,	2,	49,	-1,	35,	-1,	-1,	13,	-1,	-1,	-1,	43,	48,	19,	-1,	25,	-1,	-1,	34,	-1,	7,	-1,	41,	11,	-1,	21,	44,	-1,	23|
-1,	-1,	-1,	-1,	-1,	-1,	32,	-1,	-1,	1,	-1,	-1,	15,	39,	-1,	-1,	-1,	-1,	-1,	34,	-1,	-1,	-1,	-1,	-1,	18,	-1,	21,	44,	7,	-1,	23,	-1,	-1,	35,	8,	45,	-1,	37,	24,	-1,	-1,	-1,	25,	-1,	14,	4,	-1,	-1|
-1,	36,	-1,	-1,	21,	-1,	-1,	42,	-1,	-1,	-1,	-1,	-1,	-1,	-1,	-1,	-1,	-1,	-1,	16,	-1,	-1,	-1,	-1,	-1,	23,	-1,	-1,	2,	-1,	-1,	14,	-1,	49,	9,	43,	-1,	20,	-1,	-1,	-1,	-1,	-1,	-1,	-1,	-1,	-1,	-1,	1|
-1,	4,	-1,	-1,	30,	-1,	49,	22,	24,	-1,	28,	-1,	-1,	-1,	37,	11,	1,	-1,	-1,	-1,	41,	32,	6,	-1,	-1,	47,	-1,	-1,	-1,	29,	-1,	-1,	-1,	12,	39,	2,	-1,	-1,	40,	-1,	46,	23,	-1,	-1,	36,	-1,	-1,	-1,	17|
-1,	31,	4,	9,	24,	46,	-1,	16,	13,	41,	1,	-1,	42,	-1,	-1,	-1,	23,	-1,	19,	-1,	-1,	18,	47,	38,	10,	-1,	28,	-1,	-1,	20,	-1,	37,	33,	36,	17,	-1,	43,	40,	30,	12,	8,	-1,	-1,	45,	7,	35,	-1,	-1,	-1|
27,	7,	37,	-1,	28,	13,	-1,	3,	17,	-1,	-1,	-1,	-1,	-1,	-1,	-1,	-1,	45,	22,	40,	9,	-1,	-1,	36,	1,	30,	-1,	-1,	39,	-1,	-1,	-1,	-1,	-1,	4,	49,	-1,	-1,	18,	20,	32,	25,	16,	15,	8,	19,	48,	23,	21|
-1,	16,	1,	-1,	12,	-1,	-1,	21,	18,	49,	7,	-1,	-1,	-1,	26,	3,	-1,	-1,	36,	-1,	-1,	22,	27,	20,	43,	5,	32,	33,	38,	-1,	8,	-1,	40,	-1,	30,	23,	4,	-1,	-1,	9,	47,	-1,	34,	46,	-1,	39,	-1,	-1,	-1|
-1,	39,	-1,	20,	10,	-1,	17,	14,	-1,	5,	-1,	-1,	-1,	8,	-1,	-1,	-1,	34,	-1,	29,	-1,	-1,	44,	-1,	23,	4,	3,	-1,	-1,	-1,	-1,	11,	-1,	-1,	2,	28,	-1,	7,	38,	6,	24,	-1,	-1,	-1,	-1,	13,	36,	47,	33|
8,	2,	-1,	-1,	11,	-1,	5,	20,	6,	-1,	-1,	31,	28,	-1,	15,	-1,	41,	-1,	-1,	-1,	32,	48,	34,	-1,	37,	-1,	-1,	49,	-1,	21,	22,	10,	12,	9,	-1,	3,	-1,	39,	26,	-1,	-1,	-1,	-1,	-1,	-1,	-1,	-1,	40,	-1|
-1,	18,	-1,	41,	34,	-1,	38,	-1,	39,	33,	30,	4,	48,	2,	-1,	13,	-1,	-1,	47,	20,	1,	16,	-1,	31,	-1,	-1,	-1,	-1,	28,	3,	44,	25,	-1,	7,	6,	5,	37,	14,	42,	19,	17,	15,	-1,	-1,	9,	-1,	24,	-1,	12|
-1,	-1,	43,	3,	49,	-1,	33,	23,	-1,	-1,	-1,	-1,	-1,	29,	10,	-1,	17,	-1,	38,	-1,	30,	-1,	2,	39,	24,	9,	-1,	7,	1,	-1,	18,	-1,	-1,	-1,	-1,	-1,	-1,	-1,	-1,	-1,	31,	-1,	20,	4,	-1,	44,	-1,	-1,	41|
-1,	-1,	-1,	-1,	23,	12,	-1,	-1,	49,	-1,	-1,	-1,	-1,	-1,	24,	37,	38,	-1,	30,	-1,	-1,	11,	39,	3,	40,	28,	-1,	-1,	-1,	-1,	29,	-1,	26,	44,	-1,	-1,	8,	16,	2,	15,	-1,	-1,	36,	-1,	-1,	-1,	-1,	6,	-1|
-1,	-1,	-1,	24,	33,	-1,	41,	1,	-1,	-1,	-1,	-1,	9,	-1,	48,	31,	-1,	-1,	-1,	14,	2,	-1,	36,	34,	-1,	42,	-1,	38,	-1,	30,	-1,	45,	-1,	39,	-1,	47,	-1,	-1,	-1,	46,	-1,	10,	18,	22,	-1,	-1,	-1,	12,	32|
34,	17,	-1,	46,	15,	-1,	-1,	41,	10,	-1,	31,	-1,	40,	32,	36,	-1,	42,	29,	-1,	-1,	39,	-1,	-1,	13,	-1,	19,	24,	-1,	-1,	-1,	-1,	-1,	-1,	-1,	-1,	30,	-1,	-1,	48,	49,	1,	-1,	14,	-1,	45,	-1,	-1,	16,	37|
38,	49,	8,	-1,	26,	47,	-1,	44,	-1,	24,	16,	45,	-1,	23,	-1,	-1,	12,	-1,	11,	19,	15,	37,	20,	-1,	-1,	-1,	-1,	-1,	46,	-1,	6,	-1,	10,	-1,	-1,	-1,	9,	31,	-1,	7,	33,	13,	-1,	-1,	-1,	30,	-1,	-1,	27|
31,	40,	2,	4,	16,	-1,	10,	-1,	-1,	42,	-1,	25,	-1,	48,	-1,	17,	-1,	-1,	8,	-1,	35,	-1,	-1,	22,	45,	21,	-1,	47,	-1,	24,	-1,	20,	-1,	32,	-1,	-1,	-1,	-1,	29,	44,	28,	37,	15,	41,	46,	-1,	-1,	-1,	11|
-1,	-1,	48,	32,	13,	29,	-1,	30,	-1,	20,	5,	-1,	-1,	-1,	7,	6,	21,	-1,	28,	-1,	-1,	1,	-1,	-1,	31,	-1,	-1,	-1,	49,	-1,	-1,	36,	37,	-1,	38,	-1,	-1,	12,	43,	14,	41,	40,	-1,	-1,	-1,	-1,	-1,	9,	24|
-1,	-1,	-1,	-1,	-1,	-1,	-1,	35,	21,	-1,	-1,	14,	-1,	11,	-1,	-1,	45,	-1,	49,	-1,	-1,	9,	-1,	15,	-1,	48,	23,	8,	-1,	-1,	2,	16,	34,	-1,	31,	-1,	-1,	17,	24,	-1,	-1,	5,	-1,	47,	-1,	-1,	-1,	1,	-1|
-1,	26,	46,	-1,	8,	-1,	-1,	-1,	43,	47,	2,	27,	5,	-1,	33,	34,	-1,	49,	35,	-1,	-1,	-1,	-1,	-1,	-1,	-1,	10,	22,	42,	12,	-1,	40,	-1,	-1,	-1,	-1,	44,	45,	31,	18,	-1,	-1,	-1,	-1,	-1,	-1,	19,	-1,	-1|
-1,	38,	-1,	-1,	-1,	25,	34,	-1,	4,	31,	18,	-1,	49,	3,	-1,	-1,	22,	-1,	-1,	17,	19,	27,	5,	28,	30,	26,	-1,	23,	-1,	-1,	13,	39,	44,	-1,	-1,	-1,	-1,	-1,	15,	-1,	-1,	20,	21,	32,	10,	37,	2,	-1,	-1|
-1,	27,	-1,	5,	-1,	-1,	-1,	32,	44,	28,	-1,	-1,	25,	46,	-1,	10,	-1,	-1,	45,	36,	-1,	-1,	-1,	8,	-1,	16,	6,	-1,	-1,	-1,	-1,	22,	1,	-1,	-1,	-1,	-1,	48,	12,	-1,	-1,	9,	13,	43,	-1,	-1,	-1,	-1,	-1|
-1,	-1,	35,	-1,	-1,	-1,	-1,	48,	-1,	11,	-1,	-1,	10,	7,	6,	8,	-1,	-1,	-1,	28,	42,	24,	9,	45,	12,	39,	37,	20,	-1,	-1,	-1,	18,	-1,	2,	29,	21,	16,	-1,	-1,	25,	-1,	-1,	38,	-1,	-1,	1,	-1,	46,	-1|
-1,	48,	36,	42,	3,	19,	-1,	-1,	-1,	-1,	20,	-1,	-1,	-1,	-1,	14,	-1,	2,	29,	37,	-1,	4,	-1,	-1,	-1,	-1,	17,	44,	27,	34,	5,	24,	-1,	47,	43,	-1,	-1,	-1,	-1,	-1,	38,	32,	39,	-1,	41,	-1,	-1,	22,	-1|
10,	47,	-1,	-1,	-1,	-1,	14,	-1,	-1,	-1,	-1,	17,	-1,	38,	46,	27,	40,	-1,	-1,	-1,	4,	41,	43,	48,	42,	49,	11,	1,	-1,	37,	-1,	-1,	9,	-1,	16,	-1,	-1,	24,	5,	-1,	-1,	36,	-1,	-1,	-1,	-1,	18,	-1,	-1|
-1,	-1,	49,	45,	20,	-1,	9,	-1,	-1,	39,	14,	-1,	41,	35,	32,	16,	-1,	13,	3,	38,	44,	-1,	18,	29,	19,	7,	2,	-1,	11,	28,	-1,	-1,	23,	10,	-1,	-1,	46,	-1,	-1,	42,	-1,	27,	33,	8,	-1,	-1,	31,	-1,	-1|];
