benchmarks_LEQ/INST_49x49/50/inst49x49_50_13.txt
7
1
4	-1	29	17	18	-1	42	15	-1	-1	-1	-1	26	-1	38	-1	49	24	-1	-1	-1	20	16	-1	13	-1	-1	37	-1	48	23	2	-1	-1	-1	-1	-1	9	27	-1	-1	39	-1	-1	6	43	45	-1	-1
-1	11	26	-1	40	-1	13	45	-1	-1	-1	-1	7	-1	20	-1	34	37	-1	-1	-1	5	-1	14	9	-1	22	46	18	16	17	27	-1	-1	1	48	49	-1	-1	-1	43	30	-1	-1	-1	-1	32	24	25
6	28	-1	-1	-1	-1	-1	-1	25	-1	39	-1	-1	5	40	-1	9	7	-1	-1	27	-1	48	11	-1	-1	-1	17	-1	46	-1	13	-1	3	-1	33	18	32	-1	-1	34	-1	-1	-1	1	-1	41	14	38
-1	-1	-1	-1	27	-1	39	13	-1	40	-1	-1	-1	-1	22	-1	-1	-1	25	43	5	-1	-1	6	-1	31	-1	24	-1	44	-1	-1	41	28	-1	16	-1	-1	-1	-1	2	1	-1	-1	17	8	-1	-1	-1
5	3	9	30	-1	-1	48	-1	37	16	17	-1	29	-1	14	32	-1	44	-1	15	-1	35	-1	18	49	-1	-1	28	-1	-1	12	-1	-1	-1	21	24	-1	-1	20	-1	23	-1	-1	39	-1	34	27	-1	-1
25	22	15	-1	-1	-1	-1	18	-1	-1	-1	43	20	41	12	23	-1	8	-1	-1	-1	-1	-1	-1	3	27	34	-1	-1	-1	-1	-1	-1	42	37	17	6	26	-1	-1	14	29	-1	33	-1	46	-1	-1	-1
45	-1	-1	49	31	-1	8	4	-1	-1	-1	23	32	-1	47	41	3	-1	-1	-1	-1	15	21	-1	-1	44	40	-1	24	39	34	-1	-1	-1	22	-1	-1	-1	-1	37	10	28	5	19	2	18	-1	-1	29
-1	-1	-1	-1	47	8	7	-1	-1	-1	11	39	-1	-1	-1	-1	15	-1	-1	-1	-1	-1	42	-1	6	-1	35	25	40	2	14	-1	-1	37	-1	18	30	-1	45	41	-1	-1	46	-1	-1	36	-1	-1	4
49	25	-1	40	-1	14	24	7	22	-1	44	-1	8	-1	-1	-1	-1	39	-1	10	-1	-1	15	16	-1	-1	-1	-1	20	-1	33	-1	-1	-1	27	-1	-1	-1	-1	34	-1	26	2	-1	47	45	42	18	48
-1	1	22	-1	-1	4	18	10	-1	-1	49	33	30	-1	25	-1	37	-1	-1	-1	40	-1	-1	2	14	-1	-1	27	15	-1	-1	44	8	-1	-1	46	-1	-1	39	23	13	24	-1	-1	-1	26	-1	-1	7
-1	-1	13	-1	-1	9	-1	-1	-1	14	-1	-1	-1	4	44	-1	-1	-1	20	-1	17	-1	37	-1	-1	33	7	45	-1	-1	16	6	47	31	-1	10	36	-1	1	28	49	2	-1	40	-1	-1	-1	21	35
39	37	28	16	35	3	27	5	12	-1	23	-1	-1	40	-1	-1	24	36	-1	-1	-1	46	-1	-1	-1	-1	48	31	-1	-1	1	41	30	29	-1	15	-1	-1	-1	-1	-1	-1	9	17	20	-1	14	-1	43
-1	15	-1	-1	-1	-1	-1	28	41	13	3	-1	45	-1	34	46	14	18	7	9	23	43	30	-1	-1	32	21	-1	22	19	-1	5	-1	-1	49	-1	-1	47	25	-1	12	-1	37	1	-1	-1	-1	-1	16
23	-1	-1	-1	5	-1	12	-1	-1	-1	-1	-1	36	-1	-1	33	29	19	-1	-1	-1	-1	-1	-1	47	1	-1	-1	48	42	-1	-1	24	17	7	-1	3	-1	16	-1	37	-1	31	30	-1	-1	49	-1	39
-1	21	-1	-1	4	-1	-1	39	28	-1	-1	10	34	36	45	20	11	16	-1	18	-1	-1	-1	-1	-1	22	-1	32	-1	31	47	1	2	15	-1	-1	24	-1	-1	29	42	-1	-1	-1	-1	41	40	44	19
-1	-1	-1	18	-1	32	-1	6	-1	48	25	-1	21	-1	-1	-1	10	-1	-1	22	49	31	-1	30	29	-1	-1	-1	-1	38	45	-1	13	-1	-1	7	-1	23	33	40	-1	47	4	14	-1	9	16	20	46
-1	-1	27	-1	1	-1	46	-1	-1	-1	40	-1	-1	17	2	7	-1	28	34	24	21	19	26	-1	-1	-1	49	48	-1	-1	39	-1	-1	16	-1	38	-1	4	-1	-1	-1	41	-1	-1	-1	47	-1	11	18
14	24	-1	2	45	39	-1	11	5	-1	33	29	-1	-1	13	40	31	38	-1	-1	36	21	-1	-1	28	3	-1	15	-1	-1	-1	-1	22	-1	-1	-1	34	18	-1	43	-1	6	17	26	-1	-1	-1	10	-1
-1	29	34	28	17	38	15	43	14	-1	-1	18	-1	20	19	9	-1	-1	5	-1	-1	10	40	-1	41	-1	4	-1	32	36	35	-1	-1	-1	-1	-1	1	-1	-1	-1	-1	21	6	37	-1	-1	-1	27	-1
-1	-1	30	19	-1	-1	-1	49	32	15	47	38	12	-1	4	29	-1	-1	-1	1	3	-1	-1	44	-1	37	-1	11	21	-1	26	7	28	-1	40	20	13	-1	-1	-1	9	-1	-1	35	-1	-1	5	43	31
16	-1	40	-1	-1	31	26	-1	7	3	4	-1	2	30	39	35	-1	33	-1	47	37	14	-1	23	18	6	38	-1	-1	-1	27	8	20	5	10	19	-1	-1	49	-1	-1	22	32	24	34	25	-1	-1	-1
7	35	-1	33	-1	26	45	-1	-1	18	38	32	-1	31	-1	4	-1	-1	-1	-1	-1	-1	46	37	22	20	5	-1	-1	47	28	30	-1	24	-1	41	14	1	44	11	-1	12	19	48	42	49	-1	-1	-1
22	-1	-1	-1	-1	-1	-1	8	2	-1	-1	5	44	45	-1	-1	-1	-1	-1	-1	13	29	41	-1	7	43	-1	-1	36	-1	42	3	-1	-1	34	-1	27	-1	-1	26	-1	31	-1	18	38	20	-1	-1	-1
-1	19	-1	-1	-1	-1	43	-1	-1	7	-1	20	-1	33	17	-1	-1	-1	-1	23	38	-1	-1	-1	-1	11	-1	40	37	-1	-1	21	31	46	5	-1	47	35	28	-1	-1	-1	-1	6	29	10	30	39	26
20	-1	-1	27	38	-1	29	47	-1	46	-1	37	-1	12	-1	-1	30	31	-1	-1	-1	-1	49	-1	-1	14	-1	-1	-1	8	40	43	48	19	-1	-1	5	6	-1	-1	-1	33	-1	-1	32	-1	-1	45	-1
-1	46	16	13	42	40	-1	19	3	1	48	49	-1	-1	-1	12	2	-1	26	34	-1	-1	28	9	-1	18	-1	-1	-1	7	-1	23	-1	-1	35	-1	-1	30	-1	24	29	-1	-1	-1	-1	-1	-1	-1	47
-1	36	44	-1	21	24	-1	-1	-1	-1	-1	-1	-1	13	35	-1	19	46	-1	-1	7	-1	-1	26	-1	23	39	-1	2	41	10	-1	27	-1	-1	43	15	-1	-1	-1	18	48	-1	34	5	3	12	-1	1
15	4	-1	8	-1	-1	49	-1	-1	34	28	-1	43	14	37	-1	-1	20	-1	44	-1	32	6	27	-1	47	19	-1	-1	29	25	-1	-1	-1	39	2	10	-1	-1	21	46	23	35	-1	-1	16	13	-1	-1
21	31	4	-1	-1	-1	-1	-1	-1	-1	1	-1	42	27	-1	-1	-1	48	-1	39	25	-1	-1	38	10	-1	-1	29	-1	20	32	37	33	36	-1	-1	43	-1	-1	12	-1	34	-1	45	7	-1	-1	5	-1
27	7	37	-1	28	13	35	3	-1	-1	43	47	-1	34	31	44	33	45	22	40	-1	-1	11	-1	-1	-1	14	6	-1	-1	-1	46	42	41	4	49	2	-1	18	20	32	25	-1	15	-1	19	48	-1	21
-1	16	-1	-1	-1	48	25	21	-1	49	7	24	11	19	-1	3	35	42	-1	6	-1	-1	-1	-1	43	-1	-1	-1	38	13	8	-1	40	45	30	-1	4	10	41	9	-1	-1	34	46	-1	-1	28	17	-1
32	-1	-1	20	10	-1	17	-1	-1	-1	-1	-1	46	8	-1	21	27	34	37	-1	12	25	44	41	23	4	3	19	-1	49	48	11	-1	-1	2	-1	-1	-1	-1	-1	-1	45	-1	31	18	13	-1	-1	-1
8	2	19	-1	11	-1	-1	20	-1	25	36	31	-1	44	-1	24	-1	4	-1	-1	-1	48	-1	17	37	46	-1	-1	16	21	-1	-1	12	9	-1	3	33	39	-1	1	27	-1	43	-1	-1	-1	-1	-1	-1
36	-1	23	-1	-1	-1	-1	-1	39	33	-1	4	-1	-1	11	13	-1	-1	-1	20	1	-1	45	31	-1	-1	-1	35	-1	3	-1	25	29	7	-1	-1	-1	14	42	19	17	15	10	49	-1	-1	-1	32	12
-1	-1	43	3	-1	6	33	23	35	32	-1	-1	37	29	10	28	-1	-1	38	8	30	-1	2	39	-1	9	42	7	1	15	-1	34	-1	27	-1	-1	48	-1	46	36	-1	-1	-1	4	-1	-1	22	-1	-1
9	45	-1	-1	-1	-1	1	-1	-1	-1	46	7	33	43	-1	-1	38	22	-1	32	20	11	39	-1	-1	-1	-1	-1	47	35	29	-1	26	44	42	-1	8	-1	2	-1	21	18	-1	-1	-1	31	-1	-1	-1
-1	44	-1	24	-1	-1	41	-1	-1	-1	-1	-1	9	37	-1	31	16	27	-1	-1	2	-1	36	34	26	42	-1	38	-1	30	11	45	-1	-1	15	-1	-1	3	6	46	20	10	18	22	-1	23	7	12	32
-1	-1	6	46	-1	5	-1	-1	10	-1	-1	2	-1	-1	-1	47	42	29	-1	-1	-1	-1	25	13	-1	-1	-1	18	8	-1	43	12	21	-1	28	-1	23	-1	48	49	-1	-1	-1	20	-1	-1	-1	16	37
38	49	8	22	26	47	-1	44	-1	24	16	-1	-1	23	-1	5	12	-1	11	19	-1	37	20	-1	-1	-1	43	14	46	-1	6	-1	10	-1	41	35	9	31	36	7	33	-1	48	-1	-1	30	34	3	27
-1	40	-1	-1	16	27	10	36	-1	42	26	-1	3	48	-1	-1	13	9	8	-1	-1	-1	-1	22	-1	21	30	-1	-1	-1	-1	20	-1	-1	-1	39	19	34	-1	44	-1	37	-1	-1	-1	-1	43	-1	-1
11	42	48	-1	13	-1	-1	30	-1	-1	5	15	27	18	7	-1	-1	-1	-1	-1	-1	1	-1	-1	-1	-1	-1	16	-1	22	-1	-1	-1	25	-1	45	-1	12	43	-1	41	40	-1	2	-1	33	-1	-1	24
18	-1	-1	7	39	-1	-1	35	21	-1	-1	14	13	11	-1	43	45	-1	49	-1	10	-1	-1	-1	44	-1	-1	-1	-1	-1	2	16	34	-1	-1	-1	-1	-1	-1	-1	-1	5	26	-1	40	-1	-1	-1	28
-1	-1	-1	39	8	16	-1	29	43	47	-1	27	-1	15	33	-1	20	-1	35	-1	11	-1	-1	-1	32	38	-1	-1	42	12	41	-1	-1	-1	-1	1	44	-1	-1	18	-1	-1	-1	-1	-1	17	19	30	14
-1	38	-1	-1	6	25	34	40	4	31	18	-1	-1	3	9	48	22	1	-1	17	19	27	-1	28	30	-1	33	-1	-1	-1	-1	-1	-1	-1	46	14	29	-1	15	47	35	20	21	-1	10	37	2	-1	36
-1	27	18	-1	-1	17	21	-1	44	28	-1	42	25	-1	23	10	-1	-1	-1	-1	-1	40	-1	-1	-1	16	-1	-1	-1	4	-1	-1	-1	-1	-1	26	-1	48	-1	-1	19	9	-1	-1	3	-1	-1	29	-1
-1	-1	-1	-1	32	-1	-1	-1	30	-1	22	36	10	7	-1	-1	5	-1	-1	28	42	-1	-1	45	12	-1	-1	-1	-1	14	19	-1	17	-1	29	21	-1	-1	-1	25	-1	-1	-1	-1	26	-1	-1	-1	-1
-1	-1	36	-1	3	19	-1	-1	-1	-1	-1	-1	1	-1	30	-1	7	2	29	-1	18	4	31	-1	46	-1	-1	44	-1	-1	5	24	-1	-1	43	-1	11	-1	8	10	-1	-1	-1	-1	-1	12	-1	22	15
-1	-1	-1	-1	-1	-1	14	-1	23	-1	-1	-1	-1	-1	-1	-1	40	15	-1	31	4	-1	43	-1	42	49	11	-1	26	-1	30	32	-1	20	16	34	-1	24	-1	-1	3	36	25	44	-1	-1	-1	7	-1
-1	-1	49	-1	-1	-1	-1	24	-1	39	14	6	-1	-1	-1	-1	-1	13	3	-1	-1	-1	-1	-1	-1	7	-1	-1	11	28	-1	-1	-1	-1	25	22	-1	-1	17	42	-1	-1	33	-1	-1	-1	-1	4	5
49 
28 17 48 28
16 28 48 6
11 47 28 28
26 47 14 24
37 33 40 46
15 7 48 46
25 41 4 37
1 35 27 43
9 39 18 10
12 30 14 23
5 42 35 45
42 10 35 12
5 48 35 36
31 21 36 4
31 4 17 41
49 16 8 9
36 47 41 23
14 27 20 34
18 35 41 7
41 10 47 11
35 38 12 37
12 23 5 14
22 13 31 36
38 27 40 30
15 38 18 30
33 39 12 35
36 36 48 16
36 26 1 14
30 38 10 23
32 6 9 16
26 27 31 32
44 44 17 17
23 30 27 22
49 9 36 8
6 39 23 11
45 20 38 15
23 48 9 10
7 25 2 34
20 22 46 26
29 38 39 34
44 3 29 10
33 46 13 1
37 1 26 45
3 12 1 36
47 10 5 21
1 9 42 20
40 28 2 43
49 45 43 34
43 18 46 42
